Au2                              
   1.0000000000000000     
     2.7587658170905000   0.0000000000000000  0.000000000000000
     0.0000000000000000   4.7128437471705020  0.0000000000000000
     0.0000000000000000   0.0000000000000000  30.000000000000000
   Au
     2
Direct
  0.0000000000000000  0.0000000000000000  0.10000000000000
  0.5000000000000000  0.5000000000000000  0.10000000000000

